(declare-fun var0 () String)
(assert (str.in.re var0 (re.++ (re.union (re.* (str.to.re "f")) (re.* (str.to.re "g"))) (re.++ (re.+ (re.* (str.to.re "eee"))) (re.++ (re.* (re.* (str.to.re "d"))) (re.++ (re.+ (re.union (str.to.re "b") (str.to.re "cc"))) (re.++ (re.+ (re.* (str.to.re "a"))) (re.++ (re.union (re.* (str.to.re "88")) (re.+ (str.to.re "999"))) (re.++ (re.union (re.* (str.to.re "555")) (re.union (str.to.re "666") (str.to.re "7"))) (re.++ (re.* (re.union (str.to.re "33") (str.to.re "44"))) (re.++ (re.+ (re.union (str.to.re "1") (str.to.re "22"))) (re.* (re.* (str.to.re "000"))))))))))))))
(assert (str.in.re var0 (re.++ (re.+ (re.* (str.to.re "h"))) (re.++ (re.* (re.+ (str.to.re "g"))) (re.++ (re.* (re.union (str.to.re "eee") (str.to.re "f"))) (re.++ (re.+ (re.* (str.to.re "dd"))) (re.++ (re.* (re.union (str.to.re "bbb") (str.to.re "c"))) (re.++ (re.* (re.union (str.to.re "999") (str.to.re "aaa"))) (re.++ (re.union (re.union (str.to.re "666") (str.to.re "7")) (re.* (str.to.re "88"))) (re.++ (re.union (re.+ (str.to.re "44")) (re.+ (str.to.re "555"))) (re.++ (re.+ (re.* (str.to.re "33"))) (re.union (re.union (str.to.re "00") (str.to.re "1")) (re.* (str.to.re "222"))))))))))))))
(assert (str.in.re var0 (re.++ (re.+ (re.* (str.to.re "dd"))) (re.++ (re.+ (re.+ (str.to.re "ccc"))) (re.++ (re.union (re.* (str.to.re "aaa")) (re.+ (str.to.re "bbb"))) (re.++ (re.+ (re.* (str.to.re "999"))) (re.++ (re.+ (re.* (str.to.re "8"))) (re.++ (re.* (re.+ (str.to.re "777"))) (re.++ (re.union (re.* (str.to.re "5")) (re.+ (str.to.re "666"))) (re.++ (re.union (re.* (str.to.re "3")) (re.+ (str.to.re "4"))) (re.++ (re.* (re.* (str.to.re "2"))) (re.+ (re.union (str.to.re "00") (str.to.re "111"))))))))))))))
(assert (str.in.re var0 (re.++ (re.* (re.union (str.to.re "fff") (str.to.re "ggg"))) (re.++ (re.union (re.* (str.to.re "ddd")) (re.* (str.to.re "ee"))) (re.++ (re.+ (re.+ (str.to.re "c"))) (re.++ (re.* (re.union (str.to.re "a") (str.to.re "b"))) (re.++ (re.* (re.union (str.to.re "888") (str.to.re "999"))) (re.++ (re.union (re.* (str.to.re "666")) (re.+ (str.to.re "777"))) (re.++ (re.union (re.+ (str.to.re "4")) (re.+ (str.to.re "55"))) (re.++ (re.union (re.+ (str.to.re "22")) (re.* (str.to.re "333"))) (re.++ (re.* (re.+ (str.to.re "11"))) (re.+ (re.+ (str.to.re "000"))))))))))))))
(assert (str.in.re var0 (re.++ (re.* (re.* (str.to.re "d"))) (re.++ (re.+ (re.+ (str.to.re "ccc"))) (re.++ (re.* (re.+ (str.to.re "b"))) (re.++ (re.* (re.* (str.to.re "a"))) (re.++ (re.* (re.* (str.to.re "9"))) (re.++ (re.union (re.+ (str.to.re "77")) (re.+ (str.to.re "88"))) (re.++ (re.* (re.+ (str.to.re "6"))) (re.++ (re.union (re.+ (str.to.re "444")) (re.* (str.to.re "55"))) (re.++ (re.+ (re.union (str.to.re "22") (str.to.re "333"))) (re.union (re.* (str.to.re "000")) (re.+ (str.to.re "1"))))))))))))))
(assert (str.in.re var0 (re.++ (re.+ (re.+ (str.to.re "ee"))) (re.++ (re.+ (re.* (str.to.re "d"))) (re.++ (re.* (re.* (str.to.re "c"))) (re.++ (re.* (re.union (str.to.re "a") (str.to.re "bbb"))) (re.++ (re.* (re.+ (str.to.re "9"))) (re.++ (re.union (re.union (str.to.re "66") (str.to.re "77")) (re.+ (str.to.re "8"))) (re.++ (re.+ (re.union (str.to.re "4") (str.to.re "5"))) (re.++ (re.+ (re.* (str.to.re "333"))) (re.++ (re.+ (re.* (str.to.re "222"))) (re.union (re.* (str.to.re "0")) (re.* (str.to.re "111"))))))))))))))
(assert (str.in.re var0 (re.++ (re.+ (re.union (str.to.re "e") (str.to.re "f"))) (re.++ (re.+ (re.+ (str.to.re "ddd"))) (re.++ (re.+ (re.union (str.to.re "bbb") (str.to.re "cc"))) (re.++ (re.union (re.union (str.to.re "88") (str.to.re "99")) (re.* (str.to.re "aaa"))) (re.++ (re.+ (re.+ (str.to.re "77"))) (re.++ (re.+ (re.union (str.to.re "555") (str.to.re "66"))) (re.++ (re.+ (re.union (str.to.re "33") (str.to.re "4"))) (re.++ (re.+ (re.+ (str.to.re "2"))) (re.++ (re.* (re.* (str.to.re "1"))) (re.* (re.+ (str.to.re "000"))))))))))))))
(check-sat)